NAME          
ROWS
 N  OBJ
 L  c1
 L  c2
 L  c3
COLUMNS
    MARKER    'MARKER'                 'INTORG'
    x[1]      c1        422
    x[1]      c2        552
    x[1]      c3        887
    x[1]      OBJ       -935
    x[2]      c1        556
    x[2]      c2        873
    x[2]      c3        957
    x[2]      OBJ       -906
    x[3]      c1        241
    x[3]      c2        562
    x[3]      c3        987
    x[3]      OBJ       -639
    x[4]      c1        623
    x[4]      c2        362
    x[4]      c3        850
    x[4]      OBJ       -263
    x[5]      c1        909
    x[5]      c2        339
    x[5]      c3        892
    x[5]      OBJ       -463
    x[6]      c1        419
    x[6]      c2        599
    x[6]      c3        884
    x[6]      OBJ       -247
    x[7]      c1        749
    x[7]      c2        743
    x[7]      c3        271
    x[7]      OBJ       -994
    x[8]      c1        244
    x[8]      c2        325
    x[8]      c3        382
    x[8]      OBJ       -777
    x[9]      c1        531
    x[9]      c2        148
    x[9]      c3        616
    x[9]      OBJ       -440
    x[10]     c1        656
    x[10]     c2        198
    x[10]     c3        884
    x[10]     OBJ       -864
    x[11]     c1        740
    x[11]     c2        640
    x[11]     c3        642
    x[11]     OBJ       -370
    x[12]     c1        345
    x[12]     c2        178
    x[12]     c3        7
    x[12]     OBJ       -890
    x[13]     c1        468
    x[13]     c2        740
    x[13]     c3        990
    x[13]     OBJ       -836
    x[14]     c1        171
    x[14]     c2        744
    x[14]     c3        583
    x[14]     OBJ       -569
    x[15]     c1        167
    x[15]     c2        425
    x[15]     c3        326
    x[15]     OBJ       -932
RHS
    rhs       c1        3620
    rhs       c2        3714
    rhs       c3        5079
RANGES
BOUNDS
 LO bounds    x[1]      0
 PL bounds    x[1]
 LO bounds    x[2]      0
 PL bounds    x[2]
 LO bounds    x[3]      0
 PL bounds    x[3]
 LO bounds    x[4]      0
 PL bounds    x[4]
 LO bounds    x[5]      0
 PL bounds    x[5]
 LO bounds    x[6]      0
 PL bounds    x[6]
 LO bounds    x[7]      0
 PL bounds    x[7]
 LO bounds    x[8]      0
 PL bounds    x[8]
 LO bounds    x[9]      0
 PL bounds    x[9]
 LO bounds    x[10]     0
 PL bounds    x[10]
 LO bounds    x[11]     0
 PL bounds    x[11]
 LO bounds    x[12]     0
 PL bounds    x[12]
 LO bounds    x[13]     0
 PL bounds    x[13]
 LO bounds    x[14]     0
 PL bounds    x[14]
 LO bounds    x[15]     0
 PL bounds    x[15]
ENDATA
